Route #1: 18 67 75 184 194 128 95 32 6 40 21 68 114 13 27 193 159 122 107 38 156 7 187 24 136 173 57 86 183 99 
Route #2: 23 41 47 56 199 116 65 152 118 129 140 139 88 103 19 43 31 132 195 15 29 147 160 42 185 101 127 112 186 96 80 
Route #3: 34 4 100 135 170 83 14 176 98 121 189 20 30 182 54 110 12 109 180 153 169 53 148 
Route #4: 74 192 36 33 35 177 134 149 94 190 63 3 165 158 144 111 
Route #5: 115 61 92 77 125 143 119 71 48 167 197 44 146 178 191 200 145 102 60 69 196 138 124 45 22 55 168 
Route #6: 131 62 179 162 117 137 81 172 120 49 9 37 155 59 1 51 175 72 39 
Route #7: 151 78 150 90 50 141 84 11 123 130 198 93 10 105 46 85 73 163 
Route #8: 164 171 181 8 26 157 166 161 64 91 142 66 126 79 17 133 58 5 89 16 174 154 70 25 113 87 82 2 104 106 76 108 188 28 97 52 
Cost 2675.4
